NAME: rand_0/map7_72
TYPE: TSP
COMMENT: autogenerated using a wonderful map creator
DIMENSION: 96
EDGE_WEIGHT_TYPE: EUC_2D
NODE_COORD_SECTION
1 1.0 7.0
2 1.0 4.0
3 79.0 7.0
4 80.0 3.0
5 2.0 8.0
6 81.0 5.0
7 81.0 9.0
8 78.0 5.0
9 3.0 9.0
10 78.0 1.0
11 80.0 2.0
12 3.0 8.0
13 81.0 2.0
14 80.0 7.0
15 5.0 2.0
16 80.0 5.0
17 1.0 6.0
18 5.0 4.0
19 80.0 6.0
20 79.0 9.0
21 2.0 9.0
22 3.0 4.0
23 4.0 9.0
24 3.0 5.0
25 78.0 6.0
26 3.0 6.0
27 80.0 1.0
28 79.0 6.0
29 81.0 6.0
30 81.0 3.0
31 82.0 7.0
32 82.0 3.0
33 4.0 1.0
34 79.0 3.0
35 78.0 2.0
36 78.0 9.0
37 5.0 3.0
38 81.0 7.0
39 2.0 4.0
40 4.0 4.0
41 78.0 4.0
42 78.0 3.0
43 4.0 6.0
44 3.0 1.0
45 5.0 1.0
46 1.0 2.0
47 4.0 8.0
48 2.0 6.0
49 53.0 5.0
50 75.0 8.0
51 48.0 8.0
52 70.0 2.0
53 8.0 2.0
54 30.0 2.0
55 74.0 2.0
56 19.0 2.0
57 76.0 8.0
58 65.0 8.0
59 43.0 5.0
60 52.0 8.0
61 21.0 2.0
62 54.0 8.0
63 34.0 5.0
64 36.0 2.0
65 47.0 2.0
66 16.0 8.0
67 71.0 8.0
68 31.0 8.0
69 68.0 8.0
70 13.0 5.0
71 24.0 5.0
72 28.0 2.0
73 17.0 2.0
74 69.0 3.0
75 50.0 8.0
76 41.0 5.0
77 25.0 6.0
78 63.0 8.0
79 45.0 2.0
80 67.0 8.0
81 69.0 5.0
82 58.0 5.0
83 25.0 8.0
84 16.0 5.0
85 18.0 2.0
86 73.0 2.0
87 40.0 8.0
88 22.0 2.0
89 69.0 7.0
90 35.0 2.0
91 24.0 2.0
92 39.0 2.0
93 70.0 8.0
94 61.0 5.0
95 59.0 8.0
96 43.0 8.0
97 25.0 3.0
98 23.0 5.0
99 14.0 2.0
100 58.0 2.0
101 67.0 5.0
102 25.0 5.0
103 73.0 8.0
104 29.0 5.0
105 20.0 2.0
106 69.0 4.0
107 33.0 2.0
108 68.0 5.0
109 66.0 8.0
110 14.0 6.0
111 59.0 5.0
112 17.0 8.0
113 19.0 5.0
114 69.0 8.0
115 45.0 8.0
116 36.0 5.0
117 27.0 2.0
118 34.0 8.0
119 49.0 5.0
120 18.0 8.0
START_DEPOT_SECTION
1
2
3
4
5
6
7
8
9
10
11
12
13
14
15
16
17
18
19
20
21
22
23
24
-1
END_DEPOT_SECTION
25
26
27
28
29
30
31
32
33
34
35
36
37
38
39
40
41
42
43
44
45
46
47
48
-1
EOF
